(set-logic QF_S)
(declare-fun _var_0xINPUT_129800_() String)
(declare-fun __woorpje_diseq_pref0_() String)
(declare-fun __woorpje_diseq_suf_l0_() String)
(declare-fun __woorpje_diseq_suf_r0_() String)
(assert (=(str.++  "a4b1rEUZGM" "")(str.++ _var_0xINPUT_129800_  "")) )
(check-sat)
